\ENCODING=ISO-8859-1
\Problem name: IP_model_type1

Minimize
 obj: T_1 + T_2 + T_3 + T_4
Subject To
 c1_1:     x_1_1 + x_1_2 + x_1_3 + x_1_4  = 1
 c1_2:     x_2_1 + x_2_2 + x_2_3 + x_2_4  = 1
 c1_3:     x_3_1 + x_3_2 + x_3_3 + x_3_4  = 1
 c1_4:     x_4_1 + x_4_2 + x_4_3 + x_4_4  = 1
 c2_1:     x_1_1 + x_2_1 + x_3_1 + x_4_1  = 1
 c2_2:     x_1_2 + x_2_2 + x_3_2 + x_4_2  = 1
 c2_3:     x_1_3 + x_2_3 + x_3_3 + x_4_3  = 1
 c2_4:     x_1_4 + x_2_4 + x_3_4 + x_4_4  = 1
 c3and4_1: - 6 x_1_1 - 4 x_2_1 - 5 x_3_1 - 8 x_4_1 + C_1 >= 0
 c3and4_2: - 6 x_1_2 - 4 x_2_2 - 5 x_3_2 - 8 x_4_2 - C_1 + C_2 >= 0
 c3and4_3: - 6 x_1_3 - 4 x_2_3 - 5 x_3_3 - 8 x_4_3 - C_2 + C_3 >= 0
 c3and4_4: - 6 x_1_4 - 4 x_2_4 - 5 x_3_4 - 8 x_4_4 - C_3 + C_4 >= 0
 c5_1:     - 23 x_1_1 - C_1 + T_1 >= -31
 c5_2:     - 23 x_1_2 - C_2 + T_1 >= -31
 c5_3:     - 23 x_1_3 - C_3 + T_1 >= -31
 c5_4:     - 23 x_1_4 - C_4 + T_1 >= -31
 c5_1:     - 23 x_2_1 - C_1 + T_2 >= -27
 c5_2:     - 23 x_2_2 - C_2 + T_2 >= -27
 c5_3:     - 23 x_2_3 - C_3 + T_2 >= -27
 c5_4:     - 23 x_2_4 - C_4 + T_2 >= -27
 c5_1:     - 23 x_3_1 - C_1 + T_3 >= -35
 c5_2:     - 23 x_3_2 - C_2 + T_3 >= -35
 c5_3:     - 23 x_3_3 - C_3 + T_3 >= -35
 c5_4:     - 23 x_3_4 - C_4 + T_3 >= -35
 c5_1:     - 23 x_4_1 - C_1 + T_4 >= -39
 c5_2:     - 23 x_4_2 - C_2 + T_4 >= -39
 c5_3:     - 23 x_4_3 - C_3 + T_4 >= -39
 c5_4:     - 23 x_4_4 - C_4 + T_4 >= -39
Bounds
 0 <= x_1_1 <= 1
 0 <= x_1_2 <= 1
 0 <= x_1_3 <= 1
 0 <= x_1_4 <= 1
 0 <= x_2_1 <= 1
 0 <= x_2_2 <= 1
 0 <= x_2_3 <= 1
 0 <= x_2_4 <= 1
 0 <= x_3_1 <= 1
 0 <= x_3_2 <= 1
 0 <= x_3_3 <= 1
 0 <= x_3_4 <= 1
 0 <= x_4_1 <= 1
 0 <= x_4_2 <= 1
 0 <= x_4_3 <= 1
 0 <= x_4_4 <= 1
Binaries
 x_1_1  x_1_2  x_1_3  x_1_4  x_2_1  x_2_2  x_2_3  x_2_4  x_3_1  x_3_2  x_3_3 
 x_3_4  x_4_1  x_4_2  x_4_3  x_4_4 
End
